unknown
(model
; cardinality of BoundSet is 2
(declare-sort BoundSet 0)
; rep: @uc_BoundSet_0
; rep: @uc_BoundSet_1
; cardinality of UnboundSet is 1
(declare-sort UnboundSet 0)
(declare-fun groundTerm_3 () UnboundSet)
(define-fun IsInMiddleOfCrowd ((BOUND_VARIABLE_432 BoundSet)) Bool true)
(define-fun IsCrowdOfTeenagers ((BOUND_VARIABLE_432 BoundSet)) Bool true)
(define-fun IsMiddleOfCrowd ((BOUND_VARIABLE_432 BoundSet)) Bool false)
(define-fun IsPerson ((BOUND_VARIABLE_432 BoundSet)) Bool false)
)
sat
(model
; cardinality of BoundSet is 1
(declare-sort BoundSet 0)
; rep: @uc_BoundSet_0
; cardinality of UnboundSet is 1
(declare-sort UnboundSet 0)
(declare-fun groundTerm_6 () UnboundSet)
(define-fun IsInMiddleOfCrowd ((BOUND_VARIABLE_469 BoundSet)) Bool true)
(define-fun IsCrowdOfTeenagers ((BOUND_VARIABLE_469 BoundSet)) Bool true)
(define-fun IsMiddleOfCrowd ((BOUND_VARIABLE_469 BoundSet)) Bool true)
(define-fun IsPerson ((BOUND_VARIABLE_469 BoundSet)) Bool false)
)
